NAME : kroE100-R-5-0-a.54197.tour
COMMENT : Length = 54197
COMMENT : Found by LKH-3 [Keld Helsgaun] Tue Jul 30 13:14:56 2024
TYPE : TOUR
DIMENSION : 100
TOUR_SECTION
1
74
7
21
51
36
17
73
79
71
61
44
42
31
13
27
70
78
53
86
18
91
6
85
11
82
67
75
66
57
97
50
49
62
56
23
95
63
76
3
46
81
72
98
64
35
99
80
87
4
77
37
55
30
48
33
22
43
94
29
100
34
96
2
92
93
19
38
65
10
60
54
84
40
14
16
83
32
28
20
15
59
58
12
88
45
25
9
41
24
39
68
90
5
8
52
89
26
47
69
-1
EOF
